language Essence 1.3

letting codeWordLength be 38
letting dist be
        function((1, 1) --> 0, (1, 2) --> 1, (1, 3) --> 21, (1, 4) --> 17, (1, 5) --> 23, (1, 6) --> 5, (1, 7) --> 3,
                 (1, 8) --> 10, (1, 9) --> 17, (1, 10) --> 7, (1, 11) --> 0, (1, 12) --> 7, (1, 13) --> 3,
                 (1, 14) --> 11, (1, 15) --> 20, (1, 16) --> 6, (2, 1) --> 1, (2, 2) --> 0, (2, 3) --> 11,
                 (2, 4) --> 22, (2, 5) --> 2, (2, 6) --> 24, (2, 7) --> 0, (2, 8) --> 8, (2, 9) --> 13, (2, 10) --> 16,
                 (2, 11) --> 3, (2, 12) --> 7, (2, 13) --> 15, (2, 14) --> 7, (2, 15) --> 6, (2, 16) --> 17,
                 (3, 1) --> 21, (3, 2) --> 11, (3, 3) --> 0, (3, 4) --> 19, (3, 5) --> 14, (3, 6) --> 14, (3, 7) --> 21,
                 (3, 8) --> 9, (3, 9) --> 10, (3, 10) --> 4, (3, 11) --> 19, (3, 12) --> 12, (3, 13) --> 10,
                 (3, 14) --> 23, (3, 15) --> 7, (3, 16) --> 8, (4, 1) --> 17, (4, 2) --> 22, (4, 3) --> 19,
                 (4, 4) --> 0, (4, 5) --> 24, (4, 6) --> 9, (4, 7) --> 4, (4, 8) --> 24, (4, 9) --> 17, (4, 10) --> 13,
                 (4, 11) --> 0, (4, 12) --> 3, (4, 13) --> 8, (4, 14) --> 6, (4, 15) --> 8, (4, 16) --> 20,
                 (5, 1) --> 23, (5, 2) --> 2, (5, 3) --> 14, (5, 4) --> 24, (5, 5) --> 0, (5, 6) --> 15, (5, 7) --> 14,
                 (5, 8) --> 25, (5, 9) --> 8, (5, 10) --> 6, (5, 11) --> 3, (5, 12) --> 0, (5, 13) --> 13,
                 (5, 14) --> 12, (5, 15) --> 4, (5, 16) --> 17, (6, 1) --> 5, (6, 2) --> 24, (6, 3) --> 14,
                 (6, 4) --> 9, (6, 5) --> 15, (6, 6) --> 0, (6, 7) --> 8, (6, 8) --> 13, (6, 9) --> 0, (6, 10) --> 14,
                 (6, 11) --> 8, (6, 12) --> 8, (6, 13) --> 6, (6, 14) --> 6, (6, 15) --> 20, (6, 16) --> 16,
                 (7, 1) --> 3, (7, 2) --> 0, (7, 3) --> 21, (7, 4) --> 4, (7, 5) --> 14, (7, 6) --> 8, (7, 7) --> 0,
                 (7, 8) --> 9, (7, 9) --> 6, (7, 10) --> 0, (7, 11) --> 10, (7, 12) --> 11, (7, 13) --> 15,
                 (7, 14) --> 25, (7, 15) --> 2, (7, 16) --> 0, (8, 1) --> 10, (8, 2) --> 8, (8, 3) --> 9, (8, 4) --> 24,
                 (8, 5) --> 25, (8, 6) --> 13, (8, 7) --> 9, (8, 8) --> 0, (8, 9) --> 0, (8, 10) --> 17, (8, 11) --> 20,
                 (8, 12) --> 4, (8, 13) --> 20, (8, 14) --> 24, (8, 15) --> 0, (8, 16) --> 15, (9, 1) --> 17,
                 (9, 2) --> 13, (9, 3) --> 10, (9, 4) --> 17, (9, 5) --> 8, (9, 6) --> 0, (9, 7) --> 6, (9, 8) --> 0,
                 (9, 9) --> 0, (9, 10) --> 21, (9, 11) --> 7, (9, 12) --> 20, (9, 13) --> 4, (9, 14) --> 20,
                 (9, 15) --> 15, (9, 16) --> 7, (10, 1) --> 7, (10, 2) --> 16, (10, 3) --> 4, (10, 4) --> 13,
                 (10, 5) --> 6, (10, 6) --> 14, (10, 7) --> 0, (10, 8) --> 17, (10, 9) --> 21, (10, 10) --> 0,
                 (10, 11) --> 10, (10, 12) --> 10, (10, 13) --> 1, (10, 14) --> 8, (10, 15) --> 8, (10, 16) --> 25,
                 (11, 1) --> 0, (11, 2) --> 3, (11, 3) --> 19, (11, 4) --> 0, (11, 5) --> 3, (11, 6) --> 8,
                 (11, 7) --> 10, (11, 8) --> 20, (11, 9) --> 7, (11, 10) --> 10, (11, 11) --> 0, (11, 12) --> 19,
                 (11, 13) --> 12, (11, 14) --> 13, (11, 15) --> 2, (11, 16) --> 4, (12, 1) --> 7, (12, 2) --> 7,
                 (12, 3) --> 12, (12, 4) --> 3, (12, 5) --> 0, (12, 6) --> 8, (12, 7) --> 11, (12, 8) --> 4,
                 (12, 9) --> 20, (12, 10) --> 10, (12, 11) --> 19, (12, 12) --> 0, (12, 13) --> 9, (12, 14) --> 9,
                 (12, 15) --> 13, (12, 16) --> 0, (13, 1) --> 3, (13, 2) --> 15, (13, 3) --> 10, (13, 4) --> 8,
                 (13, 5) --> 13, (13, 6) --> 6, (13, 7) --> 15, (13, 8) --> 20, (13, 9) --> 4, (13, 10) --> 1,
                 (13, 11) --> 12, (13, 12) --> 9, (13, 13) --> 0, (13, 14) --> 0, (13, 15) --> 5, (13, 16) --> 3,
                 (14, 1) --> 11, (14, 2) --> 7, (14, 3) --> 23, (14, 4) --> 6, (14, 5) --> 12, (14, 6) --> 6,
                 (14, 7) --> 25, (14, 8) --> 24, (14, 9) --> 20, (14, 10) --> 8, (14, 11) --> 13, (14, 12) --> 9,
                 (14, 13) --> 0, (14, 14) --> 0, (14, 15) --> 0, (14, 16) --> 10, (15, 1) --> 20, (15, 2) --> 6,
                 (15, 3) --> 7, (15, 4) --> 8, (15, 5) --> 4, (15, 6) --> 20, (15, 7) --> 2, (15, 8) --> 0,
                 (15, 9) --> 15, (15, 10) --> 8, (15, 11) --> 2, (15, 12) --> 13, (15, 13) --> 5, (15, 14) --> 0,
                 (15, 15) --> 0, (15, 16) --> 6, (16, 1) --> 6, (16, 2) --> 17, (16, 3) --> 8, (16, 4) --> 20,
                 (16, 5) --> 17, (16, 6) --> 16, (16, 7) --> 0, (16, 8) --> 15, (16, 9) --> 7, (16, 10) --> 25,
                 (16, 11) --> 4, (16, 12) --> 0, (16, 13) --> 3, (16, 14) --> 10, (16, 15) --> 6, (16, 16) --> 0)
letting maxDist be 36
letting minDist be 47
letting nbCharacter be 16
letting numOfCodeWords be 8
